1000 1674
1 2 3 4 5 6 7 8 9 10 11 12 13 14 15 16 17 18 19 20 21 22 23 24 25 26 27 28 29 30 31 32 33 34 35 36 37 38 39 40 41 42 43 44 45 46 47 48 49 50 51 52 53 54 55 56 57 58 59 60 61 62 63 64 65 66 67 68 69 70 71
0 72 73 74 75 76 77 78 79 80 81 82 83 84 85 86 87 88 89 90 91 92 93 94 95 96 97 98 99 100 101 102 103 104 105 106 107 108 109 110 111 112 113 114 115 116 117 118 119 120 121 122 123 124 125 126 127 128 129 130 131 132 133 134 135 136 137 138 139 140 141 142 143 144 145 146 147 148 149 150 151 152 153 154 155 156 157 158 159 160 161 162 163 164 165 166 167 168 169 170 171 172 173 174 175 176 177
0 178 179 180 181 182 183 184 185 186 187 188 189 190 191 192 193 194 195 196 197 198 199 200 201 202 203 204 205 206 207 208 209 210 211 212 213 214 215 216
0 178 201 205 217 218 219 220 221 222 223 224 225 226 227 228 229 230 231 232 233 234 235 236 237 238 239 240 241 242 243 244 245 246 247 248 249 250 251 252 253 254 255 256 257 258 259 260 261 262 263 264 265 266 267 268 269 270 271 272 273 274 275 276 277 278 279 280 281 282 283 284 285 286 287 288 289 290 291 292 293 294 295 296 297 298 299 300 301 302 303 304 305 306 307 308 309 310 311 312 313 314 315 316 317 318 319 320 321 322 323 324 325 326 327 328 329 330 331 332 333 334 335 336 337 338 339 340 341 342 343 344 345 346 347 348 349 350 351 352 353 354 355 356 357 358 359 360 361 362 363 364 365 366 367 368 369 370 371 372 373 374 375 376 377 378 379 380 381 382 383 384 385 386 387 388 389 390 391 392 393 394 395 396 397 398 399 400 401 402 403 404 405 406 407 408 409 410 411 412 413 414 415 416 417 418 419 420 421 422 423 424 425 426 427 428 429 430 431 432 433 434 435 436 437 438 439 440 441 442 443 444 445 446 447 448 449 450 451 452 453 454 455 456 457 458 459 460 461 462 463 464 465 466 467 468 469 470 471 472 473 474 475 476 477 478 479 480 481 482 483 484 485 486 487 488 489 490 491 492 493 494 495 496 497 498 499 500 501 502 503 504 505 506 507 508 509 510 511 512 513 514 515 516 517 518 519 520 521 522 523 524 525 526 527 528 529 530 531 532 533 534 535 536 537 538 539 540 541 542 543 544 545 546 547 548 549 550 551 552 553 554 555 556 557 558 559 560 561 562 563 564 565 566 567 568 569 570 571 572 573 574 575 576 577 578 579 580 581 582 583 584 585 586 587 588 589 590 591 592 593 594 595 596 597 598 599 600 601 602 603 604 605 606 607 608 609 610 611 612 613 614 615 616 617 618 619 620 621 622 623 624 625 626 627 628 629 630 631 632 633 634 635 636 637 638 639 640 641 642 643 644 645 646 647 648 649 650 651 652 653 654 655 656 657 658 659 660 661 662 663 664 665 666 667 668 669 670 671 672 673 674 675 676 677 678 679 680 681 682 683 684 685 686 687 688 689 690 691 692 693 694 695 696 697 698 699 700 701 702 703 704 705 706 707 708 709 710 711 712 713 714 715 716 717 718 719 720 721 722 723 724 725 726 727 728 729 730 731 732 733 734 735 736 737 738 739 740 741 742 743 744 745 746 747 748 749 750 751 752 753 754 755 756 757 758 759 760 761 762 763 764 765 766
0 614 767 768 769 770 771 772 773 774 775 776 777 778 779 780 781 782 783 784 785 786 787 788 789 790 791 792 793 794 795 796 797 798 799 800 801 802 803 804 805 806 807 808 809 810 811 812 813 814 815
0 46 816 817 818 819 820 821 822 823 824 825 826 827 828 829 830 831 832 833 834 835 836 837 838 839 840 841 842 843 844 845 846 847 848 849 850 851
0 852 853 854 855 856 857 858 859 860 861 862 863 864 865 866 867 868 869 870 871 872 873 874 875 876 877 878 879 880 881 882 883 884 885 886 887 888 889 890 891 892 893 894 895 896 897 898 899 900 901 902 903 904 905 906 907 908 909 910 911 912 913 914 915 916 917 918 919 920 921 922 923 924 925 926 927 928 929 930 931 932 933 934 935 936 937 938 939 940 941 942 943 944 945 946 947 948 949 950 951 952 953 954 955 956 957 958 959 960 961 962 963 964 965 966 967 968 969 970 971 972 973 974 975 976 977 978 979 980 981 982 983 984 985 986 987 988 989 990 991 992 993 994 995 996 997 998 999
0 386
0 196
0 310
0 564
0
0 138 171
0
0 64 73 117 123 385 662
0 174 225 596
0 697
0 805
0 284 661
0
0
0
0
0 138 205 503
0 64 117 135 443
0 351 400 455
0 613
0 492
0
0
0 367
0 128
0
0
0
0
0
0 138 161 240 281 339 344 345 365 410 496 540 558 561 567 607 677 689 699 712
0
0 246 343 361
0
0 123 159 235
0 506 533
0 69 492
0 235
0
0 5 819
0
0
0 67 638 746
0
0
0
0
0 359
0
0
0
0
0 254 596 693
0
0
0 86 365 400 410
0
0 14 24 117 135 854
0 841
0 358
0 49 238 262 687
0 215 451 482 549 858 859
0 43 109
0 138 215 258 309 449 490 507 656 755
0
1 100 106 109 114 135 142 175
1 14 169
1 131 162
1 162
1
1 79 564
1
1 77 108 507 564 622 829
1 94 96 137 148
1
1
1
1 114 121 150
1 103 121 143
1 62
1
1 177
1 104 400
1
1
1
1
1 80
1 109 151 175
1 80 137 157
1
1 104 823 838 841 930
1 160
1 72 109 114 135 142 151 165 175 439
1 330
1 119
1 85
1 89 98 162
1
1 72 109 114 135 142 151 164 175 911
1 159
1 79
1 69 72 95 100 106 114 135 934
1
1
1
1
1 72 84 100 106 109 120 121 132 135 142 150 151 165 168 175
1
1 121 134
1 14 24 64 175
1
1 102 146
1 114 165
1 84 85 114 116 139 150 154 156 168 169 170 699
1
1 14 41 171
1 132 139
1
1 622
1
1 31 622
1 137
1
1 74 170
1 114 124
1
1 116
1 24 64 72 100 106 109 114 142 151 175 865
1 157
1 80 96 129 148 167 274
1 12 23 37 70 896
1 121 124 143 168
1
1
1 72 100 106 114 135 151 175
1 85 139 357
1 637
1
1 119
1
1 80 137 157
1
1 84 114 121 156 168 177
1 95 100 106 114 135 142 175
1 246
1
1 121 160
1
1 121 150 168 170
1 96 136 148 167
1
1 41 107
1 99 154
1 37
1 74 75 104
1
1 106
1 100 114 120
1
1 137 157
1 114 121 139 150 156
1 73 121 177 622
1 121 131 156
1 12 123 400
1
1
1 15
1 72 95 100 106 114 117 135 142 151
1
1 88 150 169 564
2 3
2
2
2 187 194 473
2 189
2
2
2
2 473
2 181 189 194 210 374
2 541
2 182 187 190 194 210 213 358 465
2 189 210
2
2
2
2 181 187 189 210 257 269 414 474
2
2 8 541
2
2
2 421
2
2 3 541
2
2
2
2 3 23
2
2 421
2
2
2 187 189 190 194 374 401
2
2
2 189 441 511
2
2 68 70
2
3
3
3
3 257
3 424 511 616
3
3
3 272
3 15
3 353 684 752
3
3
3 684
3
3
3
3
3
3 41 44 682
3
3
3 67
3
3 37
3
3
3 485 694
3 437
3
3 39 152
3
3
3
3
3
3
3
3 59
3
3
3 194 220 436 530
3 70
3
3 722
3 924
3 67
3
3
3
3
3 722
3
3 194 274 289 302 305 414 436 441 722
3 290
3
3 224
3 722
3 137 269 436 441 473 551 646 722 726 937
3
3
3
3
3 589 759
3
3 37
3 447 826
3
3 18
3
3
3
3
3 269
3 270 829
3
3
3
3
3
3
3
3 659
3
3
3
3 269 436 441 530 722
3
3
3 269 436 441
3
3
3
3 70
3 9
3 722
3
3
3 659
3 446 759
3
3
3
3
3
3
3
3
3
3
3 437
3
3
3 940
3 101
3
3
3
3
3
3
3
3
3 37
3
3
3
3 39
3 37
3 37
3
3
3
3 362 436
3
3 25
3
3 226
3
3
3
3 143 937
3 66 189
3 54
3
3 39
3 349
3
3
3 37 62
3
3 30
3
3
3
3
3
3
3 187 210
3
3
3
3
3
3
3
3
3
3 421
3 14
3 7
3
3
3
3
3
3 677
3
3
3 424
3
3 436
3
3
3 25 62 89 171
3 210
3
3
3
3
3
3
3 597
3
3 37 62
3
3
3
3 194 269 436 541
3
3
3
3
3 863
3
3 199 207 384 437 648 734 755 782
3
3
3 221 395 683 998
3
3
3
3
3
3
3
3
3
3
3
3 257 269 274 302 305 349 397 414 441 483 530 551 557 560 646
3 244 326 421 708 734 755
3
3 100
3
3 213 269 274 302 305 436 530 543 560 739
3
3 24
3
3
3 315
3 282 656
3
3 70
3 695
3 68
3
3
3
3 25
3
3 759
3
3
3
3
3
3
3
3 189 551 589
3
3
3
3
3
3
3
3 181 186 274 551 759
3 194
3
3
3
3
3
3 510
3
3 68
3 436
3
3 243
3
3
3
3
3 70
3
3 27 43
3
3 759
3
3 37
3
3
3
3
3
3
3 23
3
3
3 42
3 70 79
3
3
3 480 541
3 213 221
3 843
3
3
3
3
3
3
3
3
3 541
3
3
3 679 726
3
3
3
3
3
3 257 302 436 441 560 689 739
3 673
3
3 42
3
3 603
3
3
3
3
3 37
3 188 196 201 414 510 521
3
3 441
3
3
3
3
3
3 68
3 627
3 274 436 465 473
3
3
3
3
3
3 436
3 37
3
3 436 441 530 689
3 37 712 829
3
3
3 10 77 79 177 622
3
3
3 37
3
3
3
3
3
3 829
3 632 685
3
3
3
3
3
3
3 682
3
3
3
3
3
3 759
3
3 279 465 634 665
3
3
3
3
3
3
3 15 59
3 408
3
3 656
3
3
3
3 535
3
3
3
3 37
3
3
3
3
3
3 26
3 4 696
3
3 221
3
3
3
3
3
3 79 126 128 169 564
3
3
3
3
3 550 669
3
3
3
3
3 574
3
3 589
3
3 728
3 144
3 49
3
3
3
3
3
3
3
3 274 436 745
3
3 421
3
3
3
3
3
3
3
3 70 447 599
3
3
3 298 314
3
3 18
3 14
3
3
3 589
3
3
3
3 627
3
3
3
3 531
3
3
3
3 37 392
3
3 524 722
3
3 774
3 235 581
3 424
3 226 229
3 574
3
3 67
3
3 37 530 560
3
3
3
3 59
3 243
3 450
3 614
3 16
3
3 37 121
3
3
3 729
3
3 712
3
3
3
3 437
3
3
3
3 37 561 704
3
3
3
3
3
3 722
3
3
3
3 260 267 269 273 274 302 311 679 718
3
3
3
3 274 524
3
3 636
3 702
3
3
3
3
3 421 437
3
3
3
3
3 441 530
3
3
3
3
3
3 646
3 49
3
3
3
3 759
3 762
3 226
3
3
3 70 421 437
3
3
3
3 279 315 457 473 494 587 750
3
3
3 751
3
3
3
3
4
4
4
4
4 775 776 778 784 786 790 794
4
4
4 681 807
4 771 776 784 786
4 771 775 778 784 786 794
4
4 771 776 782 786 794
4
4 815
4
4 421 778
4 784
4 771 775 776 783 786 790
4 798
4 771 775 776 778 784 790 794
4
4 810
4
4 771 784 786 794
4
4
4
4 771 776 778 786 790
4
4
4
4 785 811 826 992
4
4
4
4
4
4
4 17 814
4
4 774 814
4
4
4 788
4 798
4
4
4 805 807
4 780
5 821 824 827 830 831 834 836 840 843 849 850 851
5 822 823 825 826 828 831 833 834 836 837 840 841 851
5
5 46 830 835 836 849
5
5 816 824 831 834 836 840 849 850
5 817 823 825 827 833 834 838 840 843 847
5 98 817 822 825 827 828 834 838 840 843 847 851
5 816 821 830 831 834 836 839 850 851
5 817 822 823 836 838 843 849
5 282 798 817 829 834 835 836 839 930 960
5 816 822 823 836 843 849
5 817 823 829 830 834 836 837 840 843 847 851
5 79 290 561 573 826 828 834 835 836 845 879 930
5 816 819 824 828 831 836 841 850
5 816 817 821 824 830 834 836 837 843 850 851
5
5 817 822
5 816 817 821 822 823 824 826 828 829 831 836 840 843 847 850 851
5 819 826 829 845 848
5 816 817 819 821 824 825 826 827 828 829 830 831 834 840 843 849 850 851
5 817 828 831 843 847 851
5 98 822 823 825
5 824 826
5 816 817 821 822 823 828 834 836 843
5 65 98 817 830
5
5 512 816 822 823 825 827 828 831 834 836 837 840 844 849 851
5 843 847
5 829 835 848
5
5 822 823 828 834 837 844 849 851
5 835 845
5 816 819 821 825 827 836 843 847
5 816 821 824 830 831 834 836 851
5 816 817 823 824 828 831 834 836 837 843 847 850
6 977
6
6 64
6
6 860
6
6 68 996
6 68 867 880 935 996
6 856 940 950
6 949
6
6 419 921
6 880 890 909 967 989 993 996
6 135
6
6 859 880 899 909 966 989
6 974 975 981
6 906 909 915 981 986
6
6 915
6 950
6
6
6
6
6 880 941
6
6 829 977
6 859 864 867 877 890 909 912 967 970 976 981 983 989 996
6 966
6
6
6
6
6
6
6
6
6 864 880 967
6
6
6
6
6 915
6 138
6
6
6 867 909 912 967 976 989
6 960
6
6
6 910
6 915
6 906
6 869 905 927 986 989
6 915
6
6 864 867 869 880 899 912 915 935 959 966 967 970 981 983 985 989 993 996 998
6 903
6 106
6 880 899 909 915 966 970 976 983 989 996
6
6 915
6 869 871 895 904 907 909 912 914 917 924 926 933 938 940 945 949 951 953 959 962 966 969 970 975 976 977 981 983 985 989 996
6
6 915
6
6
6
6 863
6
6
6 261 915
6
6 915
6 906
6
6
6 98 826 829
6
6
6 915
6 109
6 859 909 989 996
6
6 274 357
6 915
6
6 329 860 915 950
6 877
6
6
6
6 915
6
6
6
6 861 915
6 860 872 940
6 915
6
6 915 977
6
6
6
6
6
6 909 915 974 975 989 996
6 826 900 977
6
6 915
6 967
6
6 966 996
6 867 881 909 912 915 965 968 996
6 864 880 890 899 909 963 989
6 966
6 915
6 880 909 912 915 996
6 972 993
6 971
6
6 868 959 981 991
6 868 915 959
6 880 899 912 915 983 989
6 852 879 915 953 960 982
6
6
6
6 868 869 880 909 915 974 989
6 977
6 880 909 912 915 976
6
6 909 915
6 869 906
6
6
6 864 867 880 899 906 909 912 915 935 959 967 976 981
6
6 974
6 798
6 864 909 971
6
6
6 858 859 864 880 909 912 915 935 959 965 966 970
6
6 424 909
6
